(set-logic QF_UF)
(declare-fun A0 () Bool)
(declare-fun A1 () Bool)
(declare-fun A2 () Bool)
(declare-fun A3 () Bool)
(declare-fun A4 () Bool)
(declare-fun A5 () Bool)
(declare-fun A6 () Bool)
(declare-fun A7 () Bool)
(declare-fun A9 () Bool)
(declare-fun A10 () Bool)
(declare-fun A11 () Bool)
(declare-fun A12 () Bool)
(declare-fun A13 () Bool)
(declare-fun A14 () Bool)
(declare-fun A15 () Bool)
(declare-fun A16 () Bool)
(declare-fun A17 () Bool)
(declare-fun A18 () Bool)
(declare-fun A19 () Bool)
(declare-fun A20 () Bool)
(declare-fun A21 () Bool)
(declare-fun A22 () Bool)
(declare-fun A23 () Bool)
(declare-fun A24 () Bool)
(assert (let ((.def_0 (or A21 A3))) (let ((.def_1 (not .def_0))) (let ((.def_2 (not A1))) (let ((.def_3 (and .def_2 A10))) (let ((.def_4 (not .def_3))) (let ((.def_5 (or .def_4 .def_1))) (let ((.def_6 (and A15 A6))) (let ((.def_7 (not .def_6))) (let ((.def_8 (not A23))) (let ((.def_9 (or .def_8 A19))) (let ((.def_10 (not .def_9))) (let ((.def_11 (or .def_10 .def_7))) (let ((.def_12 (and .def_11 .def_5))) (let ((.def_13 (or A11 A6))) (let ((.def_14 (not .def_13))) (let ((.def_15 (not A17))) (let ((.def_16 (= .def_15 A7))) (let ((.def_17 (and .def_16 .def_14))) (let ((.def_18 (not A4))) (let ((.def_19 (or .def_18 A0))) (let ((.def_20 (not .def_19))) (let ((.def_21 (not A14))) (let ((.def_22 (= .def_21 A15))) (let ((.def_23 (and .def_22 .def_20))) (let ((.def_24 (and .def_23 .def_17))) (let ((.def_25 (not .def_24))) (let ((.def_26 (= .def_25 .def_12))) (let ((.def_27 (not .def_26))) (let ((.def_28 (or A11 A12))) (let ((.def_29 (not .def_28))) (let ((.def_30 (not A12))) (let ((.def_31 (or A6 .def_30))) (let ((.def_32 (not .def_31))) (let ((.def_33 (or .def_32 .def_29))) (let ((.def_34 (not .def_33))) (let ((.def_35 (not A5))) (let ((.def_36 (not A20))) (let ((.def_37 (or .def_36 .def_35))) (let ((.def_38 (not .def_37))) (let ((.def_39 (and A16 A13))) (let ((.def_40 (= .def_39 .def_38))) (let ((.def_41 (not .def_40))) (let ((.def_42 (or .def_41 .def_34))) (let ((.def_43 (not .def_42))) (let ((.def_44 (or A6 A6))) (let ((.def_45 (not .def_44))) (let ((.def_46 (not A21))) (let ((.def_47 (or A1 .def_46))) (let ((.def_48 (not .def_47))) (let ((.def_49 (and .def_48 .def_45))) (let ((.def_50 (and .def_30 .def_21))) (let ((.def_51 (not A9))) (let ((.def_52 (and A1 .def_51))) (let ((.def_53 (not .def_52))) (let ((.def_54 (or .def_53 .def_50))) (let ((.def_55 (not .def_54))) (let ((.def_56 (and .def_55 .def_49))) (let ((.def_57 (or .def_56 .def_43))) (let ((.def_58 (and .def_57 .def_27))) (let ((.def_59 (not A13))) (let ((.def_60 (and .def_2 .def_59))) (let ((.def_61 (not .def_60))) (let ((.def_62 (= .def_15 .def_15))) (let ((.def_63 (not .def_62))) (let ((.def_64 (and .def_63 .def_61))) (let ((.def_65 (not .def_64))) (let ((.def_66 (= A14 A2))) (let ((.def_67 (not .def_66))) (let ((.def_68 (not A22))) (let ((.def_69 (and .def_68 A21))) (let ((.def_70 (= .def_69 .def_67))) (let ((.def_71 (not .def_70))) (let ((.def_72 (or .def_71 .def_65))) (let ((.def_73 (not .def_72))) (let ((.def_74 (not A24))) (let ((.def_75 (or .def_74 A23))) (let ((.def_76 (not .def_75))) (let ((.def_77 (and A24 A0))) (let ((.def_78 (and .def_77 .def_76))) (let ((.def_79 (not A18))) (let ((.def_80 (and .def_79 A10))) (let ((.def_81 (not A10))) (let ((.def_82 (or A15 .def_81))) (let ((.def_83 (not .def_82))) (let ((.def_84 (and .def_83 .def_80))) (let ((.def_85 (not .def_84))) (let ((.def_86 (and .def_85 .def_78))) (let ((.def_87 (or .def_86 .def_73))) (let ((.def_88 (not A0))) (let ((.def_89 (or .def_88 A16))) (let ((.def_90 (or .def_2 A13))) (let ((.def_91 (or .def_90 .def_89))) (let ((.def_92 (not .def_91))) (let ((.def_93 (and .def_46 .def_30))) (let ((.def_94 (and A5 A12))) (let ((.def_95 (and .def_94 .def_93))) (let ((.def_96 (or .def_95 .def_92))) (let ((.def_97 (or .def_51 A13))) (let ((.def_98 (not A2))) (let ((.def_99 (and .def_98 A1))) (let ((.def_100 (and .def_99 .def_97))) (let ((.def_101 (not A19))) (let ((.def_102 (not A6))) (let ((.def_103 (and .def_102 .def_101))) (let ((.def_104 (not .def_103))) (let ((.def_105 (or .def_36 .def_68))) (let ((.def_106 (not .def_105))) (let ((.def_107 (or .def_106 .def_104))) (let ((.def_108 (not .def_107))) (let ((.def_109 (or .def_108 .def_100))) (let ((.def_110 (not .def_109))) (let ((.def_111 (= .def_110 .def_96))) (let ((.def_112 (not .def_111))) (let ((.def_113 (or .def_112 .def_87))) (let ((.def_114 (not .def_113))) (let ((.def_115 (= .def_114 .def_58))) (let ((.def_116 (not .def_115))) .def_116))))))))))))))))))))))))))))))))))))))))))))))))))))))))))))))))))))))))))))))))))))))))))))))))))))))))))))))))))))))
(check-sat)
